NAME : portcgen-29-13
COMMENT : portcgen N=29, seed=13
TYPE : TSP
DIMENSION : 29
EDGE_WEIGHT_TYPE : EUC_2D
NODE_COORD_SECTION
1 162436 -121159
2 -151083 47532
3 191994 -153160
4 98340 194361
5 -94035 47562
6 102497 845330
7 185847 152031
8 -193030 -120391
9 235033 -164555
10 -84223 -216851
11 48375 -57818
12 -94084 -76226
13 -107582 48070
14 -257721 -112867
15 -128781 -75775
16 53911 -102212
17 230008 221591
18 33939 -139574
19 25214 54868
20 -158814 400505
21 -160015 -211636
22 -353444 235681
23 -247231 93343
24 -45130 -142895
25 -344873 133186
26 173379 -144895
27 61180 -289421
28 61194 -119705
29 -118962 12315
